000 000 000 000 000 000 000 000 -99 -99 -99 -99 -99 000 000 -99 -99 -99 -99 -99 000 000 -99 -99 000 000 000 000 000 -99 -99
000 000 000 000 000 000 000 000 000 -99 -99 -99 -99 000 000 000 -99 -99 -99 000 000 000 000 000 000 000 000 001 000 -99 -99
000 000 000 000 000 000 000 000 000 000 -99 -99 -99 -99 000 000 -99 -99 -99 -99 -99 000 000 000 000 000 000 001 000 -99 -99
000 000 000 000 000 000 000 000 000 000 -99 -99 000 -99 000 000 -99 -99 -99 -99 000 000 000 000 000 000 000 001 000 -99 -99
000 -99 000 000 000 -99 000 000 000 000 -99 -99 000 000 -99 -99 -99 -99 -99 -99 000 000 000 000 000 000 000 001 000 -99 -99
000 000 000 000 000 -99 000 000 000 000 -99 -99 000 000 000 -99 -99 -99 -99 -99 000 000 000 000 -99 -99 -99 -99 000 -99 000
000 000 000 000 000 -99 -99 000 000 000 000 -99 000 000 000 000 000 -99 -99 000 000 000 000 000 000 -99 -99 -99 -99 -99 -99
000 000 000 000 -99 -99 -99 000 000 000 000 000 -99 000 000 000 000 000 -99 -99 000 000 000 000 000 -99 -99 -99 -99 000 000
000 000 000 000 -99 -99 -99 000 000 000 000 000 -99 -99 -99 -99 000 000 -99 -99 000 -99 -99 000 000 -99 000 000 -99 000 000
000 000 000 000 000 000 -99 000 000 000 000 000 -99 -99 -99 -99 000 000 000 000 000 000 -99 000 000 000 000 000 000 000 000
000 000 000 000 000 -99 000 000 000 000 000 000 000 000 -99 -99 -99 000 000 000 000 000 -99 000 000 -99 000 000 000 000 000
000 000 000 000 000 000 000 000 000 000 000 000 000 -99 -99 -99 000 000 000 000 000 000 -99 000 000 -99 000 000 -99 000 000
000 000 000 000 000 000 000 000 000 -99 000 000 000 000 -99 -99 000 000 000 000 -99 000 -99 -99 000 000 -99 000 -99 000 000
000 000 000 000 000 000 000 000 000 -99 -99 000 000 -99 -99 000 000 000 000 -99 -99 000 -99 000 000 000 000 000 000 -99 000
000 000 000 000 000 000 000 000 000 -99 -99 000 000 000 -99 000 000 000 000 -99 -99 000 -99 000 000 000 000 000 000 -99 -99
000 -99 000 000 000 000 000 000 000 -99 -99 -99 000 000 000 000 000 000 000 -99 -99 000 -99 -99 000 000 000 000 000 -99 -99
000 000 000 -99 -99 -99 000 000 000 -99 -99 -99 -99 000 000 000 000 000 000 -99 -99 -99 000 -99 -99 000 000 000 000 000 -99
000 000 000 -99 -99 -99 000 000 000 -99 -99 -99 -99 -99 000 000 000 000 000 -99 -99 000 000 -99 -99 -99 000 -99 -99 000 -99
000 000 000 000 -99 -99 000 000 000 -99 -99 -99 -99 -99 -99 000 000 000 000 -99 -99 000 000 -99 -99 -99 -99 -99 -99 000 -99
000 000 000 000 -99 -99 000 000 000 -99 -99 -99 -99 -99 -99 000 000 000 000 -99 000 000 000 -99 -99 -99 -99 -99 -99 000 -99
000 000 000 000 000 -99 -99 000 000 000 -99 -99 -99 -99 -99 000 000 000 000 000 000 000 000 -99 -99 -99 -99 -99 -99 -99 -99
000 000 000 000 000 000 -99 000 000 000 -99 -99 -99 000 000 000 000 000 000 000 000 000 000 -99 -99 -99 -99 -99 -99 -99 -99
000 000 000 000 000 000 -99 000 000 000 -99 -99 -99 000 000 000 000 000 000 000 000 000 000 -99 -99 -99 -99 -99 -99 -99 -99
000 000 000 000 000 000 000 000 000 -99 -99 -99 000 000 000 000 000 000 000 000 000 000 000 -99 -99 -99 -99 -99 -99 -99 -99
000 000 000 000 000 000 000 000 000 000 000 -99 000 000 000 000 000 000 000 000 000 000 000 -99 -99 -99 -99 -99 -99 -99 000
000 -99 000 000 000 000 000 000 000 000 000 -99 000 000 000 000 000 000 000 000 000 000 000 -99 -99 -99 -99 -99 -99 -99 000
000 -99 000 000 000 000 000 000 000 000 -99 -99 -99 000 000 000 000 000 000 000 000 000 000 -99 -99 -99 -99 -99 -99 -99 000
000 000 000 000 000 000 000 000 000 000 -99 -99 -99 -99 000 000 000 000 000 000 000 000 000 -99 -99 -99 -99 -99 -99 -99 000
000 000 000 000 000 000 000 000 000 000 000 -99 -99 -99 000 000 000 000 000 000 000 000 -99 -99 -99 -99 -99 -99 -99 -99 000
000 000 000 000 000 000 000 000 000 000 000 -99 -99 000 000 000 000 000 000 000 000 000 -99 -99 -99 -99 -99 -99 -99 -99 -99
000 000 000 000 000 -99 000 000 000 000 -99 -99 -99 000 000 000 000 000 000 -99 000 000 -99 -99 -99 -99 -99 -99 -99 -99 -99
000 000 000 000 000 000 000 000 000 000 -99 -99 -99 000 -99 -99 000 000 000 -99 -99 -99 000 000 000 -99 -99 -99 -99 -99 -99
000 000 000 000 000 000 000 000 000 000 -99 -99 -99 000 000 -99 000 000 -99 -99 -99 -99 000 000 000 -99 -99 000 000 -99 000
000 000 000 000 000 000 000 000 000 000 -99 -99 -99 000 000 000 000 000 -99 000 -99 000 000 000 000 000 000 000 000 000 000
000 000 000 000 000 000 000 000 000 000 -99 -99 -99 000 000 000 000 000 000 000 000 000 000 000 000 000 000 000 000 000 000
000 000 000 000 000 000 000 000 000 000 000 -99 -99 000 000 000 000 000 000 000 000 000 000 000 000 000 000 000 000 000 000
000 000 -99 000 000 000 000 000 000 -99 000 -99 000 000 000 000 000 -99 000 000 000 000 000 000 000 000 000 000 000 000 000
000 000 000 000 000 000 000 000 000 -99 -99 000 000 000 000 000 000 -99 -99 000 000 000 000 000 000 000 000 000 000 -99 000
000 000 000 000 000 000 000 000 -99 -99 -99 000 000 000 000 000 000 -99 000 000 000 000 000 000 000 000 000 000 -99 000 -99
000 000 000 000 000 -99 -99 000 -99 -99 -99 000 000 000 000 000 000 -99 -99 -99 000 -99 000 000 000 -99 -99 -99 -99 000 000
000 000 000 000 000 -99 -99 -99 -99 -99 000 000 000 000 000 000 -99 -99 -99 -99 000 -99 000 000 000 -99 000 -99 -99 -99 000
000 000 -99 000 -99 -99 000 000 -99 -99 000 000 000 000 000 000 000 000 000 000 000 000 000 000 000 -99 -99 -99 000 000 000
000 000 -99 -99 -99 000 -99 -99 000 000 000 000 000 000 000 000 000 000 000 000 000 -99 000 000 000 -99 -99 -99 -99 -99 -99
000 -99 -99 -99 000 000 -99 -99 -99 -99 -99 000 000 000 000 000 000 000 000 000 000 000 000 000 000 -99 -99 -99 -99 -99 -99
-99 -99 -99 -99 -99 -99 -99 -99 -99 -99 -99 000 000 000 000 000 000 000 000 000 000 000 000 000 000 -99 000 000 -99 -99 -99
000 -99 -99 -99 -99 -99 -99 -99 -99 -99 -99 000 000 -99 000 000 000 000 000 000 000 000 -99 000 000 000 000 000 -99 -99 000
000 -99 -99 -99 -99 -99 -99 -99 -99 -99 000 000 000 000 000 000 -99 000 000 000 000 000 000 000 -99 000 000 000 -99 -99 -99
-99 -99 -99 -99 -99 -99 -99 -99 -99 -99 -99 -99 -99 -99 -99 -99 -99 000 000 000 000 000 000 000 000 000 000 000 000 -99 -99
-99 -99 -99 -99 -99 -99 -99 -99 -99 -99 -99 -99 -99 -99 -99 -99 -99 000 000 000 000 000 000 -99 -99 000 000 000 -99 -99 -99
-99 -99 -99 -99 -99 -99 -99 -99 -99 -99 000 -99 -99 000 -99 -99 000 000 000 -99 000 000 -99 -99 -99 -99 000 000 000 -99 -99
-99 -99 -99 -99 -99 -99 -99 -99 -99 000 000 000 -99 000 -99 000 000 -99 -99 -99 000 -99 -99 -99 -99 -99 -99 -99 -99 -99 -99
-99 -99 -99 -99 -99 -99 -99 -99 -99 -99 000 -99 000 000 -99 000 -99 -99 -99 000 -99 -99 -99 -99 -99 -99 -99 -99 -99 -99 -99
-99 -99 -99 -99 -99 -99 -99 000 -99 -99 -99 -99 000 000 -99 -99 -99 -99 000 000 -99 -99 -99 -99 -99 -99 -99 -99 -99 -99 -99
-99 -99 -99 -99 -99 -99 000 000 -99 -99 -99 -99 -99 -99 -99 -99 -99 000 000 -99 -99 -99 -99 -99 -99 -99 -99 -99 -99 -99 -99
-99 -99 -99 -99 -99 -99 -99 -99 -99 -99 -99 -99 -99 -99 -99 -99 -99 000 -99 -99 -99 -99 -99 -99 -99 -99 -99 -99 -99 -99 -99
